benchmarks/VRPTW/TSPTW/solution/n150w60.005.txt.solution
1 22 118 149 87 14 88 102 30 50 35 15 55 20 150 84 23 78 83 131 42 148 2 122 72 82 125 121 33 52 85 24 9 12 147 146 66 73 108 100 81 136 107 63 139 57 86 27 64 141 114 18 39 58 26 123 101 38 143 111 7 130 135 79 113 46 128 70 142 104 44 132 124 129 77 105 76 68 4 41 126 75 36 49 53 54 37 93 48 127 34 43 103 117 99 10 112 16 98 94 11 56 3 120 25 31 62 28 71 47 92 109 91 21 137 74 80 59 67 95 8 65 133 106 61 40 13 17 119 6 116 60 140 145 96 51 110 19 144 90 32 115 45 138 69 29 134 5 151 97 89 
840
